(set-logic QF_S)
(declare-fun var0 () String)
(declare-fun var1 () Int)
(declare-fun var2 () Bool)
(declare-fun var3 () String)
(declare-fun var4 () Int)
(declare-fun var5 () Bool)
(declare-fun var6 () String)
(declare-fun var7 () Int)
(declare-fun var8 () Bool)
(assert (str.in.re (str.at var0 var7) (re.+ re.allchar)))
(assert (< (str.len (str.replace var6 var0 var6)) (str.indexof var3 var0 var4)))
(assert (< var1 9))
(assert (str.prefixof (str.from.int var7) (str.substr (str.substr var0 var1 var1) (str.len var0) (str.len var6))))
(check-sat)